NAME : XML100_3373_09
DIMENSION : 101
NB_CLUSTERS : 3
CLUSTERING_ALG : KMedoids
CLUSTERING_PARAMS : k(2)
CLUSTERS
1 0
2 1 2 3 4 6 7 8 10 11 12 13 15 18 19 20 21 24 25 26 27 28 29 32 33 34 35 36 37 38 41 43 47 48 49 51 52 53 56 58 60 62 63 65 66 69 75 77 80 82 83 84 85 86 88 89 90 92 93 95 96 97
3 5 9 14 16 17 22 23 30 31 39 40 42 44 45 46 50 54 55 57 59 61 64 67 68 70 71 72 73 74 76 78 79 81 87 91 94 98 99 100
EOF